
Route #1: 25 23 42 15 37 17 38 8 2 
Route #2: 26 34 18 32 13 40 7 39 
Route #3: 9 36 19 31 29 41 6 
Route #4: 4 43 27 33 14 21 
Route #5: 35 12 44 24 28 
Route #6: 16 30 22 5 10 1 
Route #7: 20 11 3 
cost 1540.98
total time is 4.2